75
300
237	1
236	1
232	1
228	3
226	1
225	1
224	1
222	1
216	1
214	1
213	2
212	1
210	1
208	2
206	1
201	1
199	1
197	1
196	1
193	1
189	1
187	2
185	1
180	3
178	2
175	2
174	3
173	1
172	1
170	2
169	1
168	1
163	1
162	1
161	3
155	2
153	1
152	1
150	1
149	1
147	1
146	1
145	1
142	1
141	1
139	1
134	1
127	1
126	2
122	1
120	1
118	1
115	1
114	2
113	2
112	1
111	1
103	1
102	1
101	1
99	4
96	1
94	2
92	1
90	1
88	1
87	1
84	2
79	1
77	1
75	1
73	2
65	1
64	2
60	1
